set NODES := 1 2 3 4 5 6;
set PIPES := a b c d e;

param friction := 1;

param pipe_length :=  
   a 1
   b 2
   c 3
   d 4 
   e 5;

param pipe_links: 0 1 :=  
   a 1 3
   b 2 3
   c 3 4
   d 4 5
   e 4 6;

param demands :=
   1 -10
   2 -10
   3 .
   4 . 
   5 .
   6 20;
